examples/dynamic/debug6/Braverman-2006CAV-Ex1-int.bpl_Iteration1_Loop_7-phaseTemplate.smt2
(set-info :smt-lib-version 2.6)
(set-logic QF_NRA)
(set-info :source |
SMT script generated by Ultimate LassoRanker [1]
Ultimate LassoRanker is a tool that synthesizes ranking functions for 
linear lasso programs and implements the techniques presented in [2] and [3].
For generating these SMT scripts Ultimate LassoRanker was used as a sub 
procedure of the termination analyzer Ultimate BuchiAutomizer [4] which 
implements the techniques presented in [5].

This SMT script belongs to a set of SMT scripts that was generated by applying
revision 11505 of BuchiAutomizer to
- the benchmarks from the demonstration category on termination of the SV-COMP 
2014 [6] available at [7],
- the benchmarks from [8] which are available at [9] and,
- benchmarks from the repository of Ultimate LassoRanker.
This set of SMT scripts contains only SMT scripts that we considered to be 
difficult because LassoRanker run into a timeout after 10 seconds.

2014-05-03, Matthias Heizmann (heizmann@informatik.uni-freiburg.de)


[1] http://ultimate.informatik.uni-freiburg.de/LassoRanker/
[2] Jan Leike and Matthias Heizmann. Ranking Templates for Linear Loops. In 
TACAS 2014.
[3] Matthias Heizmann, Jochen Hoenicke, Jan Leike and Andreas Podelski. Linear 
Ranking for Linear Lasso Programs. In ATVA 2013.
[4] http://ultimate.informatik.uni-freiburg.de/BuchiAutomizer/
[5] Matthias Heizmann, Jochen Hoenicke and Andreas Podelski. Termination 
Analysis by Learning Terminating Programs. Accepted at CAV 2014
[6] Dirk Beyer: Status Report on Software Verification - (Competition Summary 
SV-COMP 2014). TACAS 2014
[7] https://svn.sosy-lab.org/software/sv-benchmarks/trunk/c/termination-crafted/
[8] Marc Brockschmidt, Byron Cook, Carsten Fuhs: Better Termination Proving 
through Cooperation. CAV 2013:413-429
[9] http://verify.rwth-aachen.de/brockschmidt/Cooperating-T2/
|)
(set-info :category "industrial")
(set-info :status unknown)
(declare-fun delta0 () Real)
(assert (> delta0 0.0))
(declare-fun rank0c () Real)
(declare-fun rank0_y () Real)
(declare-fun rank0_x () Real)
(declare-fun delta1 () Real)
(assert (> delta1 0.0))
(declare-fun rank1c () Real)
(declare-fun rank1_y () Real)
(declare-fun rank1_x () Real)
(declare-fun delta2 () Real)
(assert (> delta2 0.0))
(declare-fun rank2c () Real)
(declare-fun rank2_y () Real)
(declare-fun rank2_x () Real)
(declare-fun delta3 () Real)
(assert (> delta3 0.0))
(declare-fun rank3c () Real)
(declare-fun rank3_y () Real)
(declare-fun rank3_x () Real)
(declare-fun delta4 () Real)
(assert (> delta4 0.0))
(declare-fun rank4c () Real)
(declare-fun rank4_y () Real)
(declare-fun rank4_x () Real)
(declare-fun delta5 () Real)
(assert (> delta5 0.0))
(declare-fun rank5c () Real)
(declare-fun rank5_y () Real)
(declare-fun rank5_x () Real)
(declare-fun delta6 () Real)
(assert (> delta6 0.0))
(declare-fun rank6c () Real)
(declare-fun rank6_y () Real)
(declare-fun rank6_x () Real)
(declare-fun si241c () Real)
(declare-fun motzkin_240_0 () Real)
(declare-fun motzkin_240_1 () Real)
(declare-fun motzkin_240_2 () Real)
(declare-fun motzkin_240_3 () Real)
(declare-fun motzkin_240_4 () Real)
(declare-fun motzkin_240_5 () Real)
(declare-fun motzkin_240_6 () Real)
(declare-fun motzkin_240_7 () Real)
(declare-fun motzkin_240_8 () Real)
(declare-fun motzkin_240_9 () Real)
(declare-fun motzkin_240_10 () Real)
(declare-fun motzkin_240_11 () Real)
(declare-fun motzkin_240_12 () Real)
(declare-fun si243c () Real)
(declare-fun motzkin_242_0 () Real)
(declare-fun motzkin_242_1 () Real)
(declare-fun motzkin_242_2 () Real)
(declare-fun motzkin_242_3 () Real)
(declare-fun motzkin_242_4 () Real)
(declare-fun motzkin_242_5 () Real)
(declare-fun motzkin_242_6 () Real)
(declare-fun si245c () Real)
(declare-fun motzkin_244_0 () Real)
(declare-fun motzkin_244_1 () Real)
(declare-fun motzkin_244_2 () Real)
(declare-fun motzkin_244_3 () Real)
(declare-fun motzkin_244_4 () Real)
(declare-fun motzkin_244_5 () Real)
(declare-fun motzkin_244_6 () Real)
(declare-fun motzkin_244_7 () Real)
(declare-fun si247c () Real)
(declare-fun motzkin_246_0 () Real)
(declare-fun motzkin_246_1 () Real)
(declare-fun motzkin_246_2 () Real)
(declare-fun motzkin_246_3 () Real)
(declare-fun motzkin_246_4 () Real)
(declare-fun motzkin_246_5 () Real)
(declare-fun motzkin_246_6 () Real)
(declare-fun motzkin_246_7 () Real)
(declare-fun motzkin_246_8 () Real)
(declare-fun si249c () Real)
(declare-fun motzkin_248_0 () Real)
(declare-fun motzkin_248_1 () Real)
(declare-fun motzkin_248_2 () Real)
(declare-fun motzkin_248_3 () Real)
(declare-fun motzkin_248_4 () Real)
(declare-fun motzkin_248_5 () Real)
(declare-fun motzkin_248_6 () Real)
(declare-fun motzkin_248_7 () Real)
(declare-fun motzkin_248_8 () Real)
(declare-fun motzkin_248_9 () Real)
(declare-fun si251c () Real)
(declare-fun motzkin_250_0 () Real)
(declare-fun motzkin_250_1 () Real)
(declare-fun motzkin_250_2 () Real)
(declare-fun motzkin_250_3 () Real)
(declare-fun motzkin_250_4 () Real)
(declare-fun motzkin_250_5 () Real)
(declare-fun motzkin_250_6 () Real)
(declare-fun motzkin_250_7 () Real)
(declare-fun motzkin_250_8 () Real)
(declare-fun motzkin_250_9 () Real)
(declare-fun motzkin_250_10 () Real)
(declare-fun si253c () Real)
(declare-fun motzkin_252_0 () Real)
(declare-fun motzkin_252_1 () Real)
(declare-fun motzkin_252_2 () Real)
(declare-fun motzkin_252_3 () Real)
(declare-fun motzkin_252_4 () Real)
(declare-fun motzkin_252_5 () Real)
(declare-fun motzkin_252_6 () Real)
(declare-fun motzkin_252_7 () Real)
(declare-fun motzkin_252_8 () Real)
(declare-fun motzkin_252_9 () Real)
(declare-fun motzkin_252_10 () Real)
(declare-fun motzkin_252_11 () Real)
(declare-fun si255c () Real)
(declare-fun motzkin_254_0 () Real)
(declare-fun motzkin_254_1 () Real)
(declare-fun motzkin_254_2 () Real)
(declare-fun motzkin_254_3 () Real)
(declare-fun motzkin_254_4 () Real)
(declare-fun motzkin_254_5 () Real)
(declare-fun motzkin_254_6 () Real)
(declare-fun motzkin_254_7 () Real)
(declare-fun motzkin_254_8 () Real)
(declare-fun motzkin_254_9 () Real)
(declare-fun motzkin_254_10 () Real)
(declare-fun motzkin_254_11 () Real)
(declare-fun motzkin_254_12 () Real)
(declare-fun motzkin_256_0 () Real)
(declare-fun motzkin_256_1 () Real)
(declare-fun motzkin_257_0 () Real)
(declare-fun motzkin_257_1 () Real)
(declare-fun motzkin_257_2 () Real)
(declare-fun motzkin_257_3 () Real)
(declare-fun motzkin_257_4 () Real)
(declare-fun motzkin_257_5 () Real)
(declare-fun motzkin_257_6 () Real)
(declare-fun motzkin_258_0 () Real)
(declare-fun motzkin_258_1 () Real)
(declare-fun motzkin_259_0 () Real)
(declare-fun motzkin_259_1 () Real)
(declare-fun motzkin_259_2 () Real)
(declare-fun motzkin_259_3 () Real)
(declare-fun motzkin_259_4 () Real)
(declare-fun motzkin_259_5 () Real)
(declare-fun motzkin_259_6 () Real)
(declare-fun motzkin_260_0 () Real)
(declare-fun motzkin_260_1 () Real)
(declare-fun motzkin_261_0 () Real)
(declare-fun motzkin_261_1 () Real)
(declare-fun motzkin_261_2 () Real)
(declare-fun motzkin_261_3 () Real)
(declare-fun motzkin_261_4 () Real)
(declare-fun motzkin_261_5 () Real)
(declare-fun motzkin_261_6 () Real)
(declare-fun motzkin_262_0 () Real)
(declare-fun motzkin_262_1 () Real)
(declare-fun motzkin_263_0 () Real)
(declare-fun motzkin_263_1 () Real)
(declare-fun motzkin_263_2 () Real)
(declare-fun motzkin_263_3 () Real)
(declare-fun motzkin_263_4 () Real)
(declare-fun motzkin_263_5 () Real)
(declare-fun motzkin_263_6 () Real)
(declare-fun motzkin_264_0 () Real)
(declare-fun motzkin_264_1 () Real)
(declare-fun motzkin_265_0 () Real)
(declare-fun motzkin_265_1 () Real)
(declare-fun motzkin_265_2 () Real)
(declare-fun motzkin_265_3 () Real)
(declare-fun motzkin_265_4 () Real)
(declare-fun motzkin_265_5 () Real)
(declare-fun motzkin_265_6 () Real)
(declare-fun motzkin_266_0 () Real)
(declare-fun motzkin_266_1 () Real)
(declare-fun motzkin_267_0 () Real)
(declare-fun motzkin_267_1 () Real)
(declare-fun motzkin_267_2 () Real)
(declare-fun motzkin_267_3 () Real)
(declare-fun motzkin_267_4 () Real)
(declare-fun motzkin_267_5 () Real)
(declare-fun motzkin_267_6 () Real)
(declare-fun motzkin_268_0 () Real)
(declare-fun motzkin_268_1 () Real)
(declare-fun motzkin_269_0 () Real)
(declare-fun motzkin_269_1 () Real)
(declare-fun motzkin_269_2 () Real)
(declare-fun motzkin_269_3 () Real)
(declare-fun motzkin_269_4 () Real)
(declare-fun motzkin_269_5 () Real)
(declare-fun motzkin_269_6 () Real)
(declare-fun motzkin_270_0 () Real)
(declare-fun motzkin_270_1 () Real)
(declare-fun motzkin_271_0 () Real)
(declare-fun motzkin_271_1 () Real)
(declare-fun motzkin_271_2 () Real)
(declare-fun motzkin_271_3 () Real)
(declare-fun motzkin_271_4 () Real)
(declare-fun motzkin_271_5 () Real)
(declare-fun motzkin_271_6 () Real)
(assert (let ((?v_0 0.0) (?v_3 1.0) (?v_1 4.0)) (let ((?v_2 (+ (* motzkin_240_4 (- 1)) (* motzkin_240_5 (+ (* (- 1) rank0c) ?v_0)) (* motzkin_240_6 (+ (* (- 1) rank1c) ?v_0)) (* motzkin_240_7 (+ (* (- 1) rank2c) ?v_0)) (* motzkin_240_8 (+ (* (- 1) rank3c) ?v_0)) (* motzkin_240_9 (+ (* (- 1) rank4c) ?v_0)) (* motzkin_240_10 (+ (* (- 1) rank5c) ?v_0)) (* motzkin_240_11 (+ (* (- 1) rank6c) ?v_0)) (* motzkin_240_12 (+ (* ?v_3 si241c) ?v_0))))) (and (>= motzkin_240_0 ?v_0) (>= motzkin_240_1 ?v_0) (>= motzkin_240_2 ?v_0) (>= motzkin_240_3 ?v_0) (>= motzkin_240_4 ?v_0) (>= motzkin_240_5 ?v_0) (>= motzkin_240_6 ?v_0) (>= motzkin_240_7 ?v_0) (>= motzkin_240_8 ?v_0) (>= motzkin_240_9 ?v_0) (>= motzkin_240_10 ?v_0) (>= motzkin_240_11 ?v_0) (>= motzkin_240_12 ?v_0) (= (+ motzkin_240_0 (* motzkin_240_1 (- 1))) ?v_0) (= (+ (* motzkin_240_0 (- 4)) (* motzkin_240_1 ?v_1) motzkin_240_2 (* motzkin_240_3 (- 1))) ?v_0) (= (+ (* motzkin_240_2 2.0) (* motzkin_240_3 (- 2)) (* motzkin_240_4 ?v_1) (* motzkin_240_5 (+ (* (- 1) rank0_x) ?v_0)) (* motzkin_240_6 (+ (* (- 1) rank1_x) ?v_0)) (* motzkin_240_7 (+ (* (- 1) rank2_x) ?v_0)) (* motzkin_240_8 (+ (* (- 1) rank3_x) ?v_0)) (* motzkin_240_9 (+ (* (- 1) rank4_x) ?v_0)) (* motzkin_240_10 (+ (* (- 1) rank5_x) ?v_0)) (* motzkin_240_11 (+ (* (- 1) rank6_x) ?v_0))) ?v_0) (= (+ (* motzkin_240_2 (- 4)) (* motzkin_240_3 ?v_1) motzkin_240_4 (* motzkin_240_5 (+ (* (- 1) rank0_y) ?v_0)) (* motzkin_240_6 (+ (* (- 1) rank1_y) ?v_0)) (* motzkin_240_7 (+ (* (- 1) rank2_y) ?v_0)) (* motzkin_240_8 (+ (* (- 1) rank3_y) ?v_0)) (* motzkin_240_9 (+ (* (- 1) rank4_y) ?v_0)) (* motzkin_240_10 (+ (* (- 1) rank5_y) ?v_0)) (* motzkin_240_11 (+ (* (- 1) rank6_y) ?v_0))) ?v_0) (<= ?v_2 ?v_0) (or (< ?v_2 ?v_0) (> ?v_0 ?v_0)) (or (= motzkin_240_5 ?v_0) (= motzkin_240_5 ?v_3)) (or (= motzkin_240_6 ?v_0) (= motzkin_240_6 ?v_3)) (or (= motzkin_240_7 ?v_0) (= motzkin_240_7 ?v_3)) (or (= motzkin_240_8 ?v_0) (= motzkin_240_8 ?v_3)) (or (= motzkin_240_9 ?v_0) (= motzkin_240_9 ?v_3)) (or (= motzkin_240_10 ?v_0) (= motzkin_240_10 ?v_3)) (or (= motzkin_240_11 ?v_0) (= motzkin_240_11 ?v_3)) (= motzkin_240_12 ?v_3)))))
(assert (let ((?v_0 0.0) (?v_1 1.0) (?v_2 4.0)) (let ((?v_3 (+ (* motzkin_242_4 (- 1)) (* motzkin_242_5 (+ (* ?v_1 delta0) ?v_0)) (* motzkin_242_6 (+ (* ?v_1 si243c) ?v_0))))) (and (>= motzkin_242_0 ?v_0) (>= motzkin_242_1 ?v_0) (>= motzkin_242_2 ?v_0) (>= motzkin_242_3 ?v_0) (>= motzkin_242_4 ?v_0) (>= motzkin_242_5 ?v_0) (>= motzkin_242_6 ?v_0) (= (+ motzkin_242_0 (* motzkin_242_1 (- 1)) (* motzkin_242_5 (+ (* ?v_1 rank0_y) ?v_0))) ?v_0) (= (+ (* motzkin_242_0 (- 4)) (* motzkin_242_1 ?v_2) motzkin_242_2 (* motzkin_242_3 (- 1)) (* motzkin_242_5 (+ (* ?v_1 rank0_x) ?v_0))) ?v_0) (= (+ (* motzkin_242_2 2.0) (* motzkin_242_3 (- 2)) (* motzkin_242_4 ?v_2) (* motzkin_242_5 (+ (* (- 1) rank0_x) ?v_0))) ?v_0) (= (+ (* motzkin_242_2 (- 4)) (* motzkin_242_3 ?v_2) motzkin_242_4 (* motzkin_242_5 (+ (* (- 1) rank0_y) ?v_0))) ?v_0) (<= ?v_3 ?v_0) (or (< ?v_3 ?v_0) (> ?v_0 ?v_0)) (or (= motzkin_242_5 ?v_0) (= motzkin_242_5 ?v_1)) (= motzkin_242_6 ?v_1)))))
(assert (let ((?v_0 0.0) (?v_1 1.0) (?v_2 4.0)) (let ((?v_3 (+ (* motzkin_244_4 (- 1)) (* motzkin_244_5 (+ (* ?v_1 delta1) ?v_0)) (* motzkin_244_6 (+ (* (- 1) rank0c) ?v_0)) (* motzkin_244_7 (+ (* ?v_1 si245c) ?v_0))))) (and (>= motzkin_244_0 ?v_0) (>= motzkin_244_1 ?v_0) (>= motzkin_244_2 ?v_0) (>= motzkin_244_3 ?v_0) (>= motzkin_244_4 ?v_0) (>= motzkin_244_5 ?v_0) (>= motzkin_244_6 ?v_0) (>= motzkin_244_7 ?v_0) (= (+ motzkin_244_0 (* motzkin_244_1 (- 1)) (* motzkin_244_5 (+ (* ?v_1 rank1_y) ?v_0))) ?v_0) (= (+ (* motzkin_244_0 (- 4)) (* motzkin_244_1 ?v_2) motzkin_244_2 (* motzkin_244_3 (- 1)) (* motzkin_244_5 (+ (* ?v_1 rank1_x) ?v_0))) ?v_0) (= (+ (* motzkin_244_2 2.0) (* motzkin_244_3 (- 2)) (* motzkin_244_4 ?v_2) (* motzkin_244_5 (+ (* (- 1) rank1_x) ?v_0)) (* motzkin_244_6 (+ (* (- 1) rank0_x) ?v_0))) ?v_0) (= (+ (* motzkin_244_2 (- 4)) (* motzkin_244_3 ?v_2) motzkin_244_4 (* motzkin_244_5 (+ (* (- 1) rank1_y) ?v_0)) (* motzkin_244_6 (+ (* (- 1) rank0_y) ?v_0))) ?v_0) (<= ?v_3 ?v_0) (or (< ?v_3 ?v_0) (> ?v_0 ?v_0)) (or (= motzkin_244_5 ?v_0) (= motzkin_244_5 ?v_1)) (or (= motzkin_244_6 ?v_0) (= motzkin_244_6 ?v_1)) (= motzkin_244_7 ?v_1)))))
(assert (let ((?v_0 0.0) (?v_1 1.0) (?v_2 4.0)) (let ((?v_3 (+ (* motzkin_246_4 (- 1)) (* motzkin_246_5 (+ (* ?v_1 delta2) ?v_0)) (* motzkin_246_6 (+ (* (- 1) rank1c) ?v_0)) (* motzkin_246_7 (+ (* (- 1) rank0c) ?v_0)) (* motzkin_246_8 (+ (* ?v_1 si247c) ?v_0))))) (and (>= motzkin_246_0 ?v_0) (>= motzkin_246_1 ?v_0) (>= motzkin_246_2 ?v_0) (>= motzkin_246_3 ?v_0) (>= motzkin_246_4 ?v_0) (>= motzkin_246_5 ?v_0) (>= motzkin_246_6 ?v_0) (>= motzkin_246_7 ?v_0) (>= motzkin_246_8 ?v_0) (= (+ motzkin_246_0 (* motzkin_246_1 (- 1)) (* motzkin_246_5 (+ (* ?v_1 rank2_y) ?v_0))) ?v_0) (= (+ (* motzkin_246_0 (- 4)) (* motzkin_246_1 ?v_2) motzkin_246_2 (* motzkin_246_3 (- 1)) (* motzkin_246_5 (+ (* ?v_1 rank2_x) ?v_0))) ?v_0) (= (+ (* motzkin_246_2 2.0) (* motzkin_246_3 (- 2)) (* motzkin_246_4 ?v_2) (* motzkin_246_5 (+ (* (- 1) rank2_x) ?v_0)) (* motzkin_246_6 (+ (* (- 1) rank1_x) ?v_0)) (* motzkin_246_7 (+ (* (- 1) rank0_x) ?v_0))) ?v_0) (= (+ (* motzkin_246_2 (- 4)) (* motzkin_246_3 ?v_2) motzkin_246_4 (* motzkin_246_5 (+ (* (- 1) rank2_y) ?v_0)) (* motzkin_246_6 (+ (* (- 1) rank1_y) ?v_0)) (* motzkin_246_7 (+ (* (- 1) rank0_y) ?v_0))) ?v_0) (<= ?v_3 ?v_0) (or (< ?v_3 ?v_0) (> ?v_0 ?v_0)) (or (= motzkin_246_5 ?v_0) (= motzkin_246_5 ?v_1)) (or (= motzkin_246_6 ?v_0) (= motzkin_246_6 ?v_1)) (or (= motzkin_246_7 ?v_0) (= motzkin_246_7 ?v_1)) (= motzkin_246_8 ?v_1)))))
(assert (let ((?v_0 0.0) (?v_1 1.0) (?v_2 4.0)) (let ((?v_3 (+ (* motzkin_248_4 (- 1)) (* motzkin_248_5 (+ (* ?v_1 delta3) ?v_0)) (* motzkin_248_6 (+ (* (- 1) rank2c) ?v_0)) (* motzkin_248_7 (+ (* (- 1) rank1c) ?v_0)) (* motzkin_248_8 (+ (* (- 1) rank0c) ?v_0)) (* motzkin_248_9 (+ (* ?v_1 si249c) ?v_0))))) (and (>= motzkin_248_0 ?v_0) (>= motzkin_248_1 ?v_0) (>= motzkin_248_2 ?v_0) (>= motzkin_248_3 ?v_0) (>= motzkin_248_4 ?v_0) (>= motzkin_248_5 ?v_0) (>= motzkin_248_6 ?v_0) (>= motzkin_248_7 ?v_0) (>= motzkin_248_8 ?v_0) (>= motzkin_248_9 ?v_0) (= (+ motzkin_248_0 (* motzkin_248_1 (- 1)) (* motzkin_248_5 (+ (* ?v_1 rank3_y) ?v_0))) ?v_0) (= (+ (* motzkin_248_0 (- 4)) (* motzkin_248_1 ?v_2) motzkin_248_2 (* motzkin_248_3 (- 1)) (* motzkin_248_5 (+ (* ?v_1 rank3_x) ?v_0))) ?v_0) (= (+ (* motzkin_248_2 2.0) (* motzkin_248_3 (- 2)) (* motzkin_248_4 ?v_2) (* motzkin_248_5 (+ (* (- 1) rank3_x) ?v_0)) (* motzkin_248_6 (+ (* (- 1) rank2_x) ?v_0)) (* motzkin_248_7 (+ (* (- 1) rank1_x) ?v_0)) (* motzkin_248_8 (+ (* (- 1) rank0_x) ?v_0))) ?v_0) (= (+ (* motzkin_248_2 (- 4)) (* motzkin_248_3 ?v_2) motzkin_248_4 (* motzkin_248_5 (+ (* (- 1) rank3_y) ?v_0)) (* motzkin_248_6 (+ (* (- 1) rank2_y) ?v_0)) (* motzkin_248_7 (+ (* (- 1) rank1_y) ?v_0)) (* motzkin_248_8 (+ (* (- 1) rank0_y) ?v_0))) ?v_0) (<= ?v_3 ?v_0) (or (< ?v_3 ?v_0) (> ?v_0 ?v_0)) (or (= motzkin_248_5 ?v_0) (= motzkin_248_5 ?v_1)) (or (= motzkin_248_6 ?v_0) (= motzkin_248_6 ?v_1)) (or (= motzkin_248_7 ?v_0) (= motzkin_248_7 ?v_1)) (or (= motzkin_248_8 ?v_0) (= motzkin_248_8 ?v_1)) (= motzkin_248_9 ?v_1)))))
(assert (let ((?v_0 0.0) (?v_1 1.0) (?v_2 4.0)) (let ((?v_3 (+ (* motzkin_250_4 (- 1)) (* motzkin_250_5 (+ (* ?v_1 delta4) ?v_0)) (* motzkin_250_6 (+ (* (- 1) rank3c) ?v_0)) (* motzkin_250_7 (+ (* (- 1) rank2c) ?v_0)) (* motzkin_250_8 (+ (* (- 1) rank1c) ?v_0)) (* motzkin_250_9 (+ (* (- 1) rank0c) ?v_0)) (* motzkin_250_10 (+ (* ?v_1 si251c) ?v_0))))) (and (>= motzkin_250_0 ?v_0) (>= motzkin_250_1 ?v_0) (>= motzkin_250_2 ?v_0) (>= motzkin_250_3 ?v_0) (>= motzkin_250_4 ?v_0) (>= motzkin_250_5 ?v_0) (>= motzkin_250_6 ?v_0) (>= motzkin_250_7 ?v_0) (>= motzkin_250_8 ?v_0) (>= motzkin_250_9 ?v_0) (>= motzkin_250_10 ?v_0) (= (+ motzkin_250_0 (* motzkin_250_1 (- 1)) (* motzkin_250_5 (+ (* ?v_1 rank4_y) ?v_0))) ?v_0) (= (+ (* motzkin_250_0 (- 4)) (* motzkin_250_1 ?v_2) motzkin_250_2 (* motzkin_250_3 (- 1)) (* motzkin_250_5 (+ (* ?v_1 rank4_x) ?v_0))) ?v_0) (= (+ (* motzkin_250_2 2.0) (* motzkin_250_3 (- 2)) (* motzkin_250_4 ?v_2) (* motzkin_250_5 (+ (* (- 1) rank4_x) ?v_0)) (* motzkin_250_6 (+ (* (- 1) rank3_x) ?v_0)) (* motzkin_250_7 (+ (* (- 1) rank2_x) ?v_0)) (* motzkin_250_8 (+ (* (- 1) rank1_x) ?v_0)) (* motzkin_250_9 (+ (* (- 1) rank0_x) ?v_0))) ?v_0) (= (+ (* motzkin_250_2 (- 4)) (* motzkin_250_3 ?v_2) motzkin_250_4 (* motzkin_250_5 (+ (* (- 1) rank4_y) ?v_0)) (* motzkin_250_6 (+ (* (- 1) rank3_y) ?v_0)) (* motzkin_250_7 (+ (* (- 1) rank2_y) ?v_0)) (* motzkin_250_8 (+ (* (- 1) rank1_y) ?v_0)) (* motzkin_250_9 (+ (* (- 1) rank0_y) ?v_0))) ?v_0) (<= ?v_3 ?v_0) (or (< ?v_3 ?v_0) (> ?v_0 ?v_0)) (or (= motzkin_250_5 ?v_0) (= motzkin_250_5 ?v_1)) (or (= motzkin_250_6 ?v_0) (= motzkin_250_6 ?v_1)) (or (= motzkin_250_7 ?v_0) (= motzkin_250_7 ?v_1)) (or (= motzkin_250_8 ?v_0) (= motzkin_250_8 ?v_1)) (or (= motzkin_250_9 ?v_0) (= motzkin_250_9 ?v_1)) (= motzkin_250_10 ?v_1)))))
(assert (let ((?v_0 0.0) (?v_1 1.0) (?v_2 4.0)) (let ((?v_3 (+ (* motzkin_252_4 (- 1)) (* motzkin_252_5 (+ (* ?v_1 delta5) ?v_0)) (* motzkin_252_6 (+ (* (- 1) rank4c) ?v_0)) (* motzkin_252_7 (+ (* (- 1) rank3c) ?v_0)) (* motzkin_252_8 (+ (* (- 1) rank2c) ?v_0)) (* motzkin_252_9 (+ (* (- 1) rank1c) ?v_0)) (* motzkin_252_10 (+ (* (- 1) rank0c) ?v_0)) (* motzkin_252_11 (+ (* ?v_1 si253c) ?v_0))))) (and (>= motzkin_252_0 ?v_0) (>= motzkin_252_1 ?v_0) (>= motzkin_252_2 ?v_0) (>= motzkin_252_3 ?v_0) (>= motzkin_252_4 ?v_0) (>= motzkin_252_5 ?v_0) (>= motzkin_252_6 ?v_0) (>= motzkin_252_7 ?v_0) (>= motzkin_252_8 ?v_0) (>= motzkin_252_9 ?v_0) (>= motzkin_252_10 ?v_0) (>= motzkin_252_11 ?v_0) (= (+ motzkin_252_0 (* motzkin_252_1 (- 1)) (* motzkin_252_5 (+ (* ?v_1 rank5_y) ?v_0))) ?v_0) (= (+ (* motzkin_252_0 (- 4)) (* motzkin_252_1 ?v_2) motzkin_252_2 (* motzkin_252_3 (- 1)) (* motzkin_252_5 (+ (* ?v_1 rank5_x) ?v_0))) ?v_0) (= (+ (* motzkin_252_2 2.0) (* motzkin_252_3 (- 2)) (* motzkin_252_4 ?v_2) (* motzkin_252_5 (+ (* (- 1) rank5_x) ?v_0)) (* motzkin_252_6 (+ (* (- 1) rank4_x) ?v_0)) (* motzkin_252_7 (+ (* (- 1) rank3_x) ?v_0)) (* motzkin_252_8 (+ (* (- 1) rank2_x) ?v_0)) (* motzkin_252_9 (+ (* (- 1) rank1_x) ?v_0)) (* motzkin_252_10 (+ (* (- 1) rank0_x) ?v_0))) ?v_0) (= (+ (* motzkin_252_2 (- 4)) (* motzkin_252_3 ?v_2) motzkin_252_4 (* motzkin_252_5 (+ (* (- 1) rank5_y) ?v_0)) (* motzkin_252_6 (+ (* (- 1) rank4_y) ?v_0)) (* motzkin_252_7 (+ (* (- 1) rank3_y) ?v_0)) (* motzkin_252_8 (+ (* (- 1) rank2_y) ?v_0)) (* motzkin_252_9 (+ (* (- 1) rank1_y) ?v_0)) (* motzkin_252_10 (+ (* (- 1) rank0_y) ?v_0))) ?v_0) (<= ?v_3 ?v_0) (or (< ?v_3 ?v_0) (> ?v_0 ?v_0)) (or (= motzkin_252_5 ?v_0) (= motzkin_252_5 ?v_1)) (or (= motzkin_252_6 ?v_0) (= motzkin_252_6 ?v_1)) (or (= motzkin_252_7 ?v_0) (= motzkin_252_7 ?v_1)) (or (= motzkin_252_8 ?v_0) (= motzkin_252_8 ?v_1)) (or (= motzkin_252_9 ?v_0) (= motzkin_252_9 ?v_1)) (or (= motzkin_252_10 ?v_0) (= motzkin_252_10 ?v_1)) (= motzkin_252_11 ?v_1)))))
(assert (let ((?v_0 0.0) (?v_1 1.0) (?v_2 4.0)) (let ((?v_3 (+ (* motzkin_254_4 (- 1)) (* motzkin_254_5 (+ (* ?v_1 delta6) ?v_0)) (* motzkin_254_6 (+ (* (- 1) rank5c) ?v_0)) (* motzkin_254_7 (+ (* (- 1) rank4c) ?v_0)) (* motzkin_254_8 (+ (* (- 1) rank3c) ?v_0)) (* motzkin_254_9 (+ (* (- 1) rank2c) ?v_0)) (* motzkin_254_10 (+ (* (- 1) rank1c) ?v_0)) (* motzkin_254_11 (+ (* (- 1) rank0c) ?v_0)) (* motzkin_254_12 (+ (* ?v_1 si255c) ?v_0))))) (and (>= motzkin_254_0 ?v_0) (>= motzkin_254_1 ?v_0) (>= motzkin_254_2 ?v_0) (>= motzkin_254_3 ?v_0) (>= motzkin_254_4 ?v_0) (>= motzkin_254_5 ?v_0) (>= motzkin_254_6 ?v_0) (>= motzkin_254_7 ?v_0) (>= motzkin_254_8 ?v_0) (>= motzkin_254_9 ?v_0) (>= motzkin_254_10 ?v_0) (>= motzkin_254_11 ?v_0) (>= motzkin_254_12 ?v_0) (= (+ motzkin_254_0 (* motzkin_254_1 (- 1)) (* motzkin_254_5 (+ (* ?v_1 rank6_y) ?v_0))) ?v_0) (= (+ (* motzkin_254_0 (- 4)) (* motzkin_254_1 ?v_2) motzkin_254_2 (* motzkin_254_3 (- 1)) (* motzkin_254_5 (+ (* ?v_1 rank6_x) ?v_0))) ?v_0) (= (+ (* motzkin_254_2 2.0) (* motzkin_254_3 (- 2)) (* motzkin_254_4 ?v_2) (* motzkin_254_5 (+ (* (- 1) rank6_x) ?v_0)) (* motzkin_254_6 (+ (* (- 1) rank5_x) ?v_0)) (* motzkin_254_7 (+ (* (- 1) rank4_x) ?v_0)) (* motzkin_254_8 (+ (* (- 1) rank3_x) ?v_0)) (* motzkin_254_9 (+ (* (- 1) rank2_x) ?v_0)) (* motzkin_254_10 (+ (* (- 1) rank1_x) ?v_0)) (* motzkin_254_11 (+ (* (- 1) rank0_x) ?v_0))) ?v_0) (= (+ (* motzkin_254_2 (- 4)) (* motzkin_254_3 ?v_2) motzkin_254_4 (* motzkin_254_5 (+ (* (- 1) rank6_y) ?v_0)) (* motzkin_254_6 (+ (* (- 1) rank5_y) ?v_0)) (* motzkin_254_7 (+ (* (- 1) rank4_y) ?v_0)) (* motzkin_254_8 (+ (* (- 1) rank3_y) ?v_0)) (* motzkin_254_9 (+ (* (- 1) rank2_y) ?v_0)) (* motzkin_254_10 (+ (* (- 1) rank1_y) ?v_0)) (* motzkin_254_11 (+ (* (- 1) rank0_y) ?v_0))) ?v_0) (<= ?v_3 ?v_0) (or (< ?v_3 ?v_0) (> ?v_0 ?v_0)) (or (= motzkin_254_5 ?v_0) (= motzkin_254_5 ?v_1)) (or (= motzkin_254_6 ?v_0) (= motzkin_254_6 ?v_1)) (or (= motzkin_254_7 ?v_0) (= motzkin_254_7 ?v_1)) (or (= motzkin_254_8 ?v_0) (= motzkin_254_8 ?v_1)) (or (= motzkin_254_9 ?v_0) (= motzkin_254_9 ?v_1)) (or (= motzkin_254_10 ?v_0) (= motzkin_254_10 ?v_1)) (or (= motzkin_254_11 ?v_0) (= motzkin_254_11 ?v_1)) (= motzkin_254_12 ?v_1)))))
(assert (let ((?v_0 0.0)) (and (>= motzkin_256_0 ?v_0) (>= motzkin_256_1 ?v_0) (<= (* motzkin_256_1 (+ (* (- 1) si241c) ?v_0)) ?v_0) (or (< ?v_0 ?v_0) (> motzkin_256_1 ?v_0)) (= motzkin_256_1 1.0))))
(assert (let ((?v_0 0.0) (?v_4 1.0) (?v_1 4.0)) (let ((?v_3 (* motzkin_257_5 (+ (* ?v_4 si241c) ?v_0))) (?v_2 (* motzkin_257_4 (- 1)))) (and (>= motzkin_257_0 ?v_0) (>= motzkin_257_1 ?v_0) (>= motzkin_257_2 ?v_0) (>= motzkin_257_3 ?v_0) (>= motzkin_257_4 ?v_0) (>= motzkin_257_5 ?v_0) (>= motzkin_257_6 ?v_0) (= (+ motzkin_257_0 (* motzkin_257_1 (- 1))) ?v_0) (= (+ (* motzkin_257_0 (- 4)) (* motzkin_257_1 ?v_1) motzkin_257_2 (* motzkin_257_3 (- 1))) ?v_0) (= (+ (* motzkin_257_2 2.0) (* motzkin_257_3 (- 2)) (* motzkin_257_4 ?v_1)) ?v_0) (= (+ (* motzkin_257_2 (- 4)) (* motzkin_257_3 ?v_1) motzkin_257_4) ?v_0) (<= (+ ?v_2 ?v_3 (* motzkin_257_6 (+ (* (- 1) si241c) ?v_0))) ?v_0) (or (< (+ ?v_2 ?v_3) ?v_0) (> motzkin_257_6 ?v_0)) (or (= motzkin_257_5 ?v_0) (= motzkin_257_5 ?v_4)) (or (= motzkin_257_6 ?v_0) (= motzkin_257_6 ?v_4))))))
(assert (let ((?v_0 0.0)) (and (>= motzkin_258_0 ?v_0) (>= motzkin_258_1 ?v_0) (<= (* motzkin_258_1 (+ (* (- 1) si243c) ?v_0)) ?v_0) (or (< ?v_0 ?v_0) (> motzkin_258_1 ?v_0)) (= motzkin_258_1 1.0))))
(assert (let ((?v_0 0.0) (?v_4 1.0) (?v_1 4.0)) (let ((?v_3 (* motzkin_259_5 (+ (* ?v_4 si243c) ?v_0))) (?v_2 (* motzkin_259_4 (- 1)))) (and (>= motzkin_259_0 ?v_0) (>= motzkin_259_1 ?v_0) (>= motzkin_259_2 ?v_0) (>= motzkin_259_3 ?v_0) (>= motzkin_259_4 ?v_0) (>= motzkin_259_5 ?v_0) (>= motzkin_259_6 ?v_0) (= (+ motzkin_259_0 (* motzkin_259_1 (- 1))) ?v_0) (= (+ (* motzkin_259_0 (- 4)) (* motzkin_259_1 ?v_1) motzkin_259_2 (* motzkin_259_3 (- 1))) ?v_0) (= (+ (* motzkin_259_2 2.0) (* motzkin_259_3 (- 2)) (* motzkin_259_4 ?v_1)) ?v_0) (= (+ (* motzkin_259_2 (- 4)) (* motzkin_259_3 ?v_1) motzkin_259_4) ?v_0) (<= (+ ?v_2 ?v_3 (* motzkin_259_6 (+ (* (- 1) si243c) ?v_0))) ?v_0) (or (< (+ ?v_2 ?v_3) ?v_0) (> motzkin_259_6 ?v_0)) (or (= motzkin_259_5 ?v_0) (= motzkin_259_5 ?v_4)) (or (= motzkin_259_6 ?v_0) (= motzkin_259_6 ?v_4))))))
(assert (let ((?v_0 0.0)) (and (>= motzkin_260_0 ?v_0) (>= motzkin_260_1 ?v_0) (<= (* motzkin_260_1 (+ (* (- 1) si245c) ?v_0)) ?v_0) (or (< ?v_0 ?v_0) (> motzkin_260_1 ?v_0)) (= motzkin_260_1 1.0))))
(assert (let ((?v_0 0.0) (?v_4 1.0) (?v_1 4.0)) (let ((?v_3 (* motzkin_261_5 (+ (* ?v_4 si245c) ?v_0))) (?v_2 (* motzkin_261_4 (- 1)))) (and (>= motzkin_261_0 ?v_0) (>= motzkin_261_1 ?v_0) (>= motzkin_261_2 ?v_0) (>= motzkin_261_3 ?v_0) (>= motzkin_261_4 ?v_0) (>= motzkin_261_5 ?v_0) (>= motzkin_261_6 ?v_0) (= (+ motzkin_261_0 (* motzkin_261_1 (- 1))) ?v_0) (= (+ (* motzkin_261_0 (- 4)) (* motzkin_261_1 ?v_1) motzkin_261_2 (* motzkin_261_3 (- 1))) ?v_0) (= (+ (* motzkin_261_2 2.0) (* motzkin_261_3 (- 2)) (* motzkin_261_4 ?v_1)) ?v_0) (= (+ (* motzkin_261_2 (- 4)) (* motzkin_261_3 ?v_1) motzkin_261_4) ?v_0) (<= (+ ?v_2 ?v_3 (* motzkin_261_6 (+ (* (- 1) si245c) ?v_0))) ?v_0) (or (< (+ ?v_2 ?v_3) ?v_0) (> motzkin_261_6 ?v_0)) (or (= motzkin_261_5 ?v_0) (= motzkin_261_5 ?v_4)) (or (= motzkin_261_6 ?v_0) (= motzkin_261_6 ?v_4))))))
(assert (let ((?v_0 0.0)) (and (>= motzkin_262_0 ?v_0) (>= motzkin_262_1 ?v_0) (<= (* motzkin_262_1 (+ (* (- 1) si247c) ?v_0)) ?v_0) (or (< ?v_0 ?v_0) (> motzkin_262_1 ?v_0)) (= motzkin_262_1 1.0))))
(assert (let ((?v_0 0.0) (?v_4 1.0) (?v_1 4.0)) (let ((?v_3 (* motzkin_263_5 (+ (* ?v_4 si247c) ?v_0))) (?v_2 (* motzkin_263_4 (- 1)))) (and (>= motzkin_263_0 ?v_0) (>= motzkin_263_1 ?v_0) (>= motzkin_263_2 ?v_0) (>= motzkin_263_3 ?v_0) (>= motzkin_263_4 ?v_0) (>= motzkin_263_5 ?v_0) (>= motzkin_263_6 ?v_0) (= (+ motzkin_263_0 (* motzkin_263_1 (- 1))) ?v_0) (= (+ (* motzkin_263_0 (- 4)) (* motzkin_263_1 ?v_1) motzkin_263_2 (* motzkin_263_3 (- 1))) ?v_0) (= (+ (* motzkin_263_2 2.0) (* motzkin_263_3 (- 2)) (* motzkin_263_4 ?v_1)) ?v_0) (= (+ (* motzkin_263_2 (- 4)) (* motzkin_263_3 ?v_1) motzkin_263_4) ?v_0) (<= (+ ?v_2 ?v_3 (* motzkin_263_6 (+ (* (- 1) si247c) ?v_0))) ?v_0) (or (< (+ ?v_2 ?v_3) ?v_0) (> motzkin_263_6 ?v_0)) (or (= motzkin_263_5 ?v_0) (= motzkin_263_5 ?v_4)) (or (= motzkin_263_6 ?v_0) (= motzkin_263_6 ?v_4))))))
(assert (let ((?v_0 0.0)) (and (>= motzkin_264_0 ?v_0) (>= motzkin_264_1 ?v_0) (<= (* motzkin_264_1 (+ (* (- 1) si249c) ?v_0)) ?v_0) (or (< ?v_0 ?v_0) (> motzkin_264_1 ?v_0)) (= motzkin_264_1 1.0))))
(assert (let ((?v_0 0.0) (?v_4 1.0) (?v_1 4.0)) (let ((?v_3 (* motzkin_265_5 (+ (* ?v_4 si249c) ?v_0))) (?v_2 (* motzkin_265_4 (- 1)))) (and (>= motzkin_265_0 ?v_0) (>= motzkin_265_1 ?v_0) (>= motzkin_265_2 ?v_0) (>= motzkin_265_3 ?v_0) (>= motzkin_265_4 ?v_0) (>= motzkin_265_5 ?v_0) (>= motzkin_265_6 ?v_0) (= (+ motzkin_265_0 (* motzkin_265_1 (- 1))) ?v_0) (= (+ (* motzkin_265_0 (- 4)) (* motzkin_265_1 ?v_1) motzkin_265_2 (* motzkin_265_3 (- 1))) ?v_0) (= (+ (* motzkin_265_2 2.0) (* motzkin_265_3 (- 2)) (* motzkin_265_4 ?v_1)) ?v_0) (= (+ (* motzkin_265_2 (- 4)) (* motzkin_265_3 ?v_1) motzkin_265_4) ?v_0) (<= (+ ?v_2 ?v_3 (* motzkin_265_6 (+ (* (- 1) si249c) ?v_0))) ?v_0) (or (< (+ ?v_2 ?v_3) ?v_0) (> motzkin_265_6 ?v_0)) (or (= motzkin_265_5 ?v_0) (= motzkin_265_5 ?v_4)) (or (= motzkin_265_6 ?v_0) (= motzkin_265_6 ?v_4))))))
(assert (let ((?v_0 0.0)) (and (>= motzkin_266_0 ?v_0) (>= motzkin_266_1 ?v_0) (<= (* motzkin_266_1 (+ (* (- 1) si251c) ?v_0)) ?v_0) (or (< ?v_0 ?v_0) (> motzkin_266_1 ?v_0)) (= motzkin_266_1 1.0))))
(assert (let ((?v_0 0.0) (?v_4 1.0) (?v_1 4.0)) (let ((?v_3 (* motzkin_267_5 (+ (* ?v_4 si251c) ?v_0))) (?v_2 (* motzkin_267_4 (- 1)))) (and (>= motzkin_267_0 ?v_0) (>= motzkin_267_1 ?v_0) (>= motzkin_267_2 ?v_0) (>= motzkin_267_3 ?v_0) (>= motzkin_267_4 ?v_0) (>= motzkin_267_5 ?v_0) (>= motzkin_267_6 ?v_0) (= (+ motzkin_267_0 (* motzkin_267_1 (- 1))) ?v_0) (= (+ (* motzkin_267_0 (- 4)) (* motzkin_267_1 ?v_1) motzkin_267_2 (* motzkin_267_3 (- 1))) ?v_0) (= (+ (* motzkin_267_2 2.0) (* motzkin_267_3 (- 2)) (* motzkin_267_4 ?v_1)) ?v_0) (= (+ (* motzkin_267_2 (- 4)) (* motzkin_267_3 ?v_1) motzkin_267_4) ?v_0) (<= (+ ?v_2 ?v_3 (* motzkin_267_6 (+ (* (- 1) si251c) ?v_0))) ?v_0) (or (< (+ ?v_2 ?v_3) ?v_0) (> motzkin_267_6 ?v_0)) (or (= motzkin_267_5 ?v_0) (= motzkin_267_5 ?v_4)) (or (= motzkin_267_6 ?v_0) (= motzkin_267_6 ?v_4))))))
(assert (let ((?v_0 0.0)) (and (>= motzkin_268_0 ?v_0) (>= motzkin_268_1 ?v_0) (<= (* motzkin_268_1 (+ (* (- 1) si253c) ?v_0)) ?v_0) (or (< ?v_0 ?v_0) (> motzkin_268_1 ?v_0)) (= motzkin_268_1 1.0))))
(assert (let ((?v_0 0.0) (?v_4 1.0) (?v_1 4.0)) (let ((?v_3 (* motzkin_269_5 (+ (* ?v_4 si253c) ?v_0))) (?v_2 (* motzkin_269_4 (- 1)))) (and (>= motzkin_269_0 ?v_0) (>= motzkin_269_1 ?v_0) (>= motzkin_269_2 ?v_0) (>= motzkin_269_3 ?v_0) (>= motzkin_269_4 ?v_0) (>= motzkin_269_5 ?v_0) (>= motzkin_269_6 ?v_0) (= (+ motzkin_269_0 (* motzkin_269_1 (- 1))) ?v_0) (= (+ (* motzkin_269_0 (- 4)) (* motzkin_269_1 ?v_1) motzkin_269_2 (* motzkin_269_3 (- 1))) ?v_0) (= (+ (* motzkin_269_2 2.0) (* motzkin_269_3 (- 2)) (* motzkin_269_4 ?v_1)) ?v_0) (= (+ (* motzkin_269_2 (- 4)) (* motzkin_269_3 ?v_1) motzkin_269_4) ?v_0) (<= (+ ?v_2 ?v_3 (* motzkin_269_6 (+ (* (- 1) si253c) ?v_0))) ?v_0) (or (< (+ ?v_2 ?v_3) ?v_0) (> motzkin_269_6 ?v_0)) (or (= motzkin_269_5 ?v_0) (= motzkin_269_5 ?v_4)) (or (= motzkin_269_6 ?v_0) (= motzkin_269_6 ?v_4))))))
(assert (let ((?v_0 0.0)) (and (>= motzkin_270_0 ?v_0) (>= motzkin_270_1 ?v_0) (<= (* motzkin_270_1 (+ (* (- 1) si255c) ?v_0)) ?v_0) (or (< ?v_0 ?v_0) (> motzkin_270_1 ?v_0)) (= motzkin_270_1 1.0))))
(assert (let ((?v_0 0.0) (?v_4 1.0) (?v_1 4.0)) (let ((?v_3 (* motzkin_271_5 (+ (* ?v_4 si255c) ?v_0))) (?v_2 (* motzkin_271_4 (- 1)))) (and (>= motzkin_271_0 ?v_0) (>= motzkin_271_1 ?v_0) (>= motzkin_271_2 ?v_0) (>= motzkin_271_3 ?v_0) (>= motzkin_271_4 ?v_0) (>= motzkin_271_5 ?v_0) (>= motzkin_271_6 ?v_0) (= (+ motzkin_271_0 (* motzkin_271_1 (- 1))) ?v_0) (= (+ (* motzkin_271_0 (- 4)) (* motzkin_271_1 ?v_1) motzkin_271_2 (* motzkin_271_3 (- 1))) ?v_0) (= (+ (* motzkin_271_2 2.0) (* motzkin_271_3 (- 2)) (* motzkin_271_4 ?v_1)) ?v_0) (= (+ (* motzkin_271_2 (- 4)) (* motzkin_271_3 ?v_1) motzkin_271_4) ?v_0) (<= (+ ?v_2 ?v_3 (* motzkin_271_6 (+ (* (- 1) si255c) ?v_0))) ?v_0) (or (< (+ ?v_2 ?v_3) ?v_0) (> motzkin_271_6 ?v_0)) (or (= motzkin_271_5 ?v_0) (= motzkin_271_5 ?v_4)) (or (= motzkin_271_6 ?v_0) (= motzkin_271_6 ?v_4))))))
(check-sat)
(exit)
