z3_origin/Braverman-2006CAV-Ex1-int.bpl_Iteration1_Loop_7-phaseTemplate.txt
timeout
(:max-memory   622.20
 :memory       622.20
 :num-allocs   118208949575.00
 :rlimit-count 3329043439
 :time         1199.99
 :total-time   1197.17)
